p cnf 101 348
-2 -3 -4 0
2 3 -4 0
-2 3 4 0
2 -3 4 0
-1 4 -5 0
1 -4 -5 0
-1 -4 5 0
1 4 5 0
-7 2 0
-7 6 0
-2 -6 7 0
8 7 0
8 -3 0
-7 3 -8 0
-10 -11 -12 0
10 11 -12 0
-10 11 12 0
10 -11 12 0
-9 12 -13 0
9 -12 -13 0
-9 -12 13 0
9 12 13 0
-14 -7 -15 0
14 7 -15 0
-14 7 15 0
14 -7 15 0
-16 -15 0
-16 11 0
15 -11 16 0
17 13 0
17 16 0
-13 -16 -17 0
18 -8 0
18 17 0
8 -17 -18 0
-19 5 0
-19 -18 0
-5 18 19 0
-20 -3 -21 0
20 3 -21 0
-20 3 21 0
20 -3 21 0
6 21 -22 0
-6 -21 -22 0
6 -21 22 0
-6 21 22 0
-22 6 -23 0
22 -6 -23 0
-22 -6 23 0
22 6 23 0
-6 -24 -25 0
6 24 -25 0
-6 24 25 0
6 -24 25 0
26 7 0
26 11 0
-7 -11 -26 0
27 25 0
27 -26 0
-25 26 -27 0
-28 12 0
-28 -21 0
-12 21 28 0
-29 4 0
-29 -28 0
-4 28 29 0
-27 29 -30 0
27 -29 -30 0
-27 -29 30 0
27 29 30 0
-31 -13 0
-31 -30 0
13 30 31 0
-32 -23 0
-32 -31 0
23 31 32 0
34 -33 0
34 -3 0
33 3 -34 0
-35 11 0
-35 -34 0
-11 34 35 0
3 -8 -36 0
-3 8 -36 0
3 8 36 0
-3 -8 36 0
-35 36 -37 0
35 -36 -37 0
-35 -36 37 0
35 36 37 0
-38 27 0
-38 -15 0
-27 15 38 0
39 -6 0
39 -25 0
6 25 -39 0
40 -38 0
40 -39 0
38 39 -40 0
-41 13 0
-41 29 0
-13 -29 41 0
40 -41 -42 0
-40 41 -42 0
40 41 42 0
-40 -41 42 0
-43 -37 0
-43 -42 0
37 42 43 0
-45 44 0
-45 -26 0
-44 26 45 0
14 -9 -46 0
-14 9 -46 0
14 9 46 0
-14 -9 46 0
-47 -2 0
-47 46 0
2 -46 47 0
-48 47 0
-48 12 0
-47 -12 48 0
-49 -45 0
-49 -48 0
45 48 49 0
50 3 -51 0
-50 -3 -51 0
50 -3 51 0
-50 3 51 0
49 51 -52 0
-49 -51 -52 0
49 -51 52 0
-49 51 52 0
-43 -52 -53 0
43 52 -53 0
-43 52 53 0
43 -52 53 0
54 -32 0
54 -53 0
32 53 -54 0
55 19 0
55 -54 0
-19 54 -55 0
56 15 0
56 -9 0
-15 9 -56 0
-57 2 0
-57 -3 0
-2 3 57 0
44 57 -58 0
-44 -57 -58 0
44 -57 58 0
-44 57 58 0
59 -56 0
59 -58 0
56 58 -59 0
60 -1 0
60 2 0
1 -2 -60 0
61 -28 0
61 -60 0
28 60 -61 0
22 -6 -62 0
-22 6 -62 0
22 6 62 0
-22 -6 62 0
63 -61 0
63 -62 0
61 62 -63 0
-64 -59 0
-64 -63 0
59 63 64 0
-65 14 0
-65 -44 0
-14 44 65 0
66 -15 0
66 30 0
15 -30 -66 0
67 65 0
67 66 0
-65 -66 -67 0
68 -1 0
68 13 0
1 -13 -68 0
69 68 0
69 -21 0
-68 21 -69 0
-70 69 0
-70 68 0
-69 -68 70 0
-71 -67 0
-71 70 0
67 -70 71 0
72 11 0
72 50 0
-11 -50 -72 0
-73 34 0
-73 57 0
-34 -57 73 0
73 4 -74 0
-73 -4 -74 0
73 -4 74 0
-73 4 74 0
17 74 -75 0
-17 -74 -75 0
17 -74 75 0
-17 74 75 0
76 -72 0
76 -75 0
72 75 -76 0
77 -46 0
77 60 0
46 -60 -77 0
-78 -13 0
-78 -77 0
13 77 78 0
-79 -76 0
-79 -78 0
76 78 79 0
80 -71 0
80 79 0
71 -79 -80 0
1 -8 -81 0
-1 8 -81 0
1 8 81 0
-1 -8 81 0
-82 81 0
-82 29 0
-81 -29 82 0
17 -83 -84 0
-17 83 -84 0
17 83 84 0
-17 -83 84 0
-82 -84 -85 0
82 84 -85 0
-82 84 85 0
82 -84 85 0
86 26 0
86 -25 0
-26 25 -86 0
86 44 -87 0
-86 -44 -87 0
86 -44 87 0
-86 44 87 0
88 13 0
88 28 0
-13 -28 -88 0
-89 29 0
-89 -88 0
-29 88 89 0
-90 -87 0
-90 -89 0
87 89 90 0
91 -85 0
91 90 0
85 -90 -91 0
92 -80 0
92 91 0
80 -91 -92 0
93 -60 0
93 -46 0
60 46 -93 0
94 93 0
94 -2 0
-93 2 -94 0
2 9 -95 0
-2 -9 -95 0
2 -9 95 0
-2 9 95 0
96 94 0
96 95 0
-94 -95 -96 0
-97 2 0
-97 1 0
-2 -1 97 0
96 -97 -98 0
-96 97 -98 0
96 97 98 0
-96 -97 98 0
-99 92 0
-99 98 0
-92 -98 99 0
-64 -99 -100 0
64 99 -100 0
-64 99 100 0
64 -99 100 0
101 55 0
101 -100 0
-55 100 -101 0
-14 44 -17 75 -66 0
72 17 0
100 -96 0
45 -98 0
-28 25 -8 -18 0
95 -48 0
-2 -54 -16 0
64 50 -11 80 35 0
22 -42 0
-101 -49 26 57 -30 0
-24 31 0
18 20 -89 87 0
-36 5 -53 -12 -3 31 0
21 -55 0
-6 -53 -5 0
75 9 5 50 0
66 90 -89 -29 -34 0
-83 68 -54 -78 60 -82 0
83 54 0
70 12 99 53 0
78 -17 -90 14 0
45 -37 0
57 46 -48 0
31 -5 -48 4 -66 0
67 50 63 7 69 0
52 -44 -39 0
44 -100 -40 7 0
-17 -20 -19 0
-32 21 31 0
93 -23 97 -52 69 0
-16 57 29 24 -41 0
-63 80 -43 0
28 -68 39 0
25 -67 0
-85 -91 -71 -13 39 0
28 -34 0
-95 91 57 -59 -98 1 0
94 44 -27 0
27 -19 -25 -44 14 -38 0
1 51 -26 -57 31 0
-62 53 -47 24 48 0
40 -55 0
-78 -90 51 -54 0
-67 -78 74 84 0
-15 97 0
-69 22 0
-74 12 -14 0
-50 54 89 78 -42 73 0
50 -38 -3 -32 101 0
94 -61 -47 0
-38 -100 -60 0
41 35 8 -7 0
18 -72 -51 -49 -30 0
80 -82 -20 78 0
-86 66 0
-82 47 0
41 -86 -16 -95 -75 0
-1 -70 9 -89 0
101 0
